
Gurobi 10.0.0 (linux64) logging started Thu Nov 24 00:04:54 2022

Set parameter LogFile to value "../results/k03_n050_d015/k03_n052_d015_2-FullIns_3_binary_BQO_log.txt"
Gurobi Optimizer version 10.0.0 build v10.0.0rc2 (linux64)

CPU model: Intel(R) Xeon(R) CPU E5-2630 v4 @ 2.20GHz, instruction set [SSE2|AVX|AVX2]
Thread count: 20 physical cores, 40 logical processors, using up to 10 threads

Optimize a model with 52 rows, 156 columns and 156 nonzeros
Model fingerprint: 0x3430dfce
Model has 603 quadratic objective terms
Variable types: 0 continuous, 156 integer (156 binary)
Coefficient statistics:
  Matrix range     [1e+00, 1e+00]
  Objective range  [0e+00, 0e+00]
  QObjective range [2e+00, 2e+00]
  Bounds range     [1e+00, 1e+00]
  RHS range        [1e+00, 1e+00]
Found heuristic solution: objective -0.0000000
Presolve removed 1 rows and 3 columns
Presolve time: 0.01s
Presolved: 642 rows, 744 columns, 1926 nonzeros
Variable types: 0 continuous, 744 integer (744 binary)

Root relaxation: objective 2.010000e+02, 116 iterations, 0.00 seconds (0.00 work units)

    Nodes    |    Current Node    |     Objective Bounds      |     Work
 Expl Unexpl |  Obj  Depth IntInf | Incumbent    BestBd   Gap | It/Node Time

     0     0  201.00000    0   40   -0.00000  201.00000      -     -    0s
H    0     0                     188.0000000  201.00000  6.91%     -    0s
H    0     0                     194.0000000  201.00000  3.61%     -    0s
H    0     0                     195.0000000  201.00000  3.08%     -    0s
H    0     0                     196.0000000  201.00000  2.55%     -    0s
     0     0  201.00000    0   99  196.00000  201.00000  2.55%     -    0s
     0     0  200.00000    0  124  196.00000  200.00000  2.04%     -    0s
     0     0  200.00000    0  122  196.00000  200.00000  2.04%     -    0s
     0     0  198.50000    0  110  196.00000  198.50000  1.28%     -    0s
     0     0  198.33333    0  135  196.00000  198.33333  1.19%     -    0s
     0     0  198.33333    0  120  196.00000  198.33333  1.19%     -    0s
     0     0  198.00000    0  131  196.00000  198.00000  1.02%     -    0s
     0     0  198.00000    0  106  196.00000  198.00000  1.02%     -    0s
     0     0  198.00000    0  121  196.00000  198.00000  1.02%     -    0s
     0     0  198.00000    0  123  196.00000  198.00000  1.02%     -    0s
     0     0  198.00000    0   72  196.00000  198.00000  1.02%     -    0s
     0     0  198.00000    0   58  196.00000  198.00000  1.02%     -    0s
     0     0  198.00000    0   56  196.00000  198.00000  1.02%     -    0s
     0     0  198.00000    0   58  196.00000  198.00000  1.02%     -    0s
     0     0  198.00000    0   78  196.00000  198.00000  1.02%     -    0s
     0     0  198.00000    0   78  196.00000  198.00000  1.02%     -    0s
     0     2  198.00000    0   78  196.00000  198.00000  1.02%     -    0s

Cutting planes:
  MIR: 3
  Zero half: 26
  RLT: 12
  BQP: 32

Explored 22 nodes (3215 simplex iterations) in 0.50 seconds (0.19 work units)
Thread count was 10 (of 40 available processors)

Solution count 5: 196 195 194 ... -0

Optimal solution found (tolerance 0.00e+00)
Best objective 1.960000000000e+02, best bound 1.960000000000e+02, gap 0.0000%
